100 8
407 346
445 753
483 911
896 344
554 812
166 402
696 623
750 149
847 414
410 684
539 726
545 965
671 743
184 702
743 200
587 678
411 777
469 308
477 617
537 820
396 618
67 553
509 579
187 704
117 420
217 745
490 970
602 760
639 655
485 810
737 675
207 627
536 696
270 719
469 788
623 390
406 756
379 906
645 769
258 792
631 349
584 848
686 773
532 845
750 215
242 442
580 840
581 113
184 377
166 419
730 468
418 765
861 338
545 618
600 862
719 678
743 624
857 349
707 128
189 702
585 807
353 795
259 644
111 360
131 356
734 584
636 729
82 433
497 641
635 242
187 473
574 622
176 860
761 453
542 857
630 255
676 140
730 228
616 744
300 752
634 181
675 109
101 298
458 582
563 824
807 473
444 873
666 613
543 730
261 811
644 158
199 470
515 603
491 879
529 813
595 757
703 655
242 399
888 345
346 625
